(set-logic QF_S)
(declare-fun var0 () String)
(assert (RegexIn var0 (RegexConcat (RegexStar (RegexPlus (Str2Reg "00"))) (RegexConcat (RegexStar (RegexPlus (Str2Reg "111"))) (RegexConcat (RegexPlus (RegexUnion (Str2Reg "2") (Str2Reg "3"))) (RegexConcat (RegexStar (RegexUnion (Str2Reg "4") (Str2Reg "555"))) (RegexConcat (RegexPlus (RegexUnion (Str2Reg "6") (Str2Reg "77"))) (RegexConcat (RegexUnion (RegexPlus (Str2Reg "888")) (RegexPlus (Str2Reg "999"))) (RegexConcat (RegexUnion (RegexUnion (Str2Reg "aaa") (Str2Reg "b")) (RegexUnion (Str2Reg "c") (Str2Reg "d"))) (RegexConcat (RegexStar (RegexUnion (Str2Reg "eee") (Str2Reg "ff"))) (RegexConcat (RegexUnion (RegexUnion (Str2Reg "g") (Str2Reg "h")) (RegexUnion (Str2Reg "ii") (Str2Reg "jjj"))) (RegexUnion (RegexStar (Str2Reg "kk")) (RegexStar (Str2Reg "lll"))))))))))))))
(assert (<= 351 (Length var0)))
(check-sat)